c FILE: graph-us-01.col
c We build our own graph for testing
p edge 15 39
e 1 2
e 1 3
e 1 4
e 1 6
e 1 8
e 1 11
e 1 13
e 1 15
e 2 3
e 2 4
e 2 6
e 2 7
e 2 8
e 2 10
e 2 13
e 3 4
e 3 8
e 3 11
e 3 12
e 3 14
e 3 15
e 4 7
e 4 8
e 4 10
e 4 11
e 5 6
e 5 7
e 5 9
e 5 10
e 5 11
e 5 12
e 5 14
e 6 7
e 7 9
e 7 10
e 7 12
e 8 9
e 8 10
e 8 11
e 8 12
e 8 13
e 8 14
e 8 15
e 9 10
e 9 11
e 11 14
e 11 15
e 12 14
e 13 15
e 14 15